NAME:24_12
TYPE: TSP
DIMENSION: 24
EDGE_WEIGHT_TYPE: EXPLICIT
EDGE_WEIGHT_FORMAT: UPPER_ROW
EDGE_WEIGHT_SECTION
312 312 312 312 312 312 312 312 312 312 312 0 113 113 128 118 128 118 114 114 110 106 104 312 312 312 312 312 312 312 312 312 312 123 0 104 123 113 147 113 113 117 117 117 119 312 312 312 312 312 312 312 312 312 147 132 0 123 137 147 141 141 145 145 145 147 312 312 312 312 312 312 312 312 132 113 113 0 118 156 122 122 126 126 126 128 312 312 312 312 312 312 312 118 123 123 142 0 142 132 128 128 124 120 118 312 312 312 312 312 312 104 113 113 104 118 0 118 114 114 110 106 104 312 312 312 312 312 114 123 119 118 104 138 0 104 108 108 108 110 312 312 312 312 114 123 123 118 108 138 108 0 108 108 108 110 312 312 312 110 119 119 118 108 134 108 104 0 104 104 106 312 312 110 119 119 122 112 134 112 108 108 0 104 106 312 110 119 119 126 116 134 116 112 112 108 0 106 108 117 117 128 118 132 118 114 114 110 106 0 312 312 312 312 312 312 312 312 312 312 312 312 312 312 312 312 312 312 312 312 312 312 312 312 312 312 312 312 312 312 312 312 312 312 312 312 312 312 312 312 312 312 312 312 312 312 312 312 312 312 312 312 312 312 312 312 312 312 312 312 312 312 312 312 312 312 